Please use text editors such as Notepad++ to open "TSPTW_dataset.tex".
The dataset includes 100 cities with different time window.
Row 1-CUST NO. 2-XCOORD. 3_YCOORD. 5-READY TIME 6-DUE DATE

Problem: n100w60 (696.6) 
Instance: n100w60.001 
Best known by: Dumas et al. (1995)
Instance file: n100w20.001.txt	
Path image: n100w20.001.png
Path solution: n100w20.001.txt.solution